CMD:
./solvers/bin/cadical --plain --no-reduce -t 1600 ./data/cnfs//arbitrated_top_n5_w128_d8_e0/arbitrated_top_n5_w128_d8_e0.68.cnf

c --- [ banner ] -------------------------------------------------------------
c 
c CaDiCaL SAT Solver
c Copyright (c) 2016-2024
c A. Biere, M. Fleury, N. Froleyks, K. Fazekas, F. Pollitt, T. Faller
c JKU Linz, University of Freiburg, TU Wien
c 
c Version 2.1.3 5296d3d2a9bf48c154ab2acb5e44625776d821bf
c g++ (Gentoo 12.3.1_p20230526 p2) 12.3.1 20230526 -Wall -Wextra -O3 -DNDEBUG
c Sat Aug 9 07:26:21 PDT 2025 Linux cedar2.int.cedar.computecanada.ca 5.14.0-362.24.2.el9_3.x86_64 x86_64
c 
c --- [ limit ] --------------------------------------------------------------
c 
c setting time limit to 1600 seconds real time (due to '-t 1600')
c 
c --- [ parsing input ] ------------------------------------------------------
c 
c reading DIMACS file from './data/cnfs//arbitrated_top_n5_w128_d8_e0/arbitrated_top_n5_w128_d8_e0.68.cnf'
c opening file to read './data/cnfs//arbitrated_top_n5_w128_d8_e0/arbitrated_top_n5_w128_d8_e0.68.cnf'
c found 'p cnf 2026085 5925031' header
c parsed 5925031 clauses in 0.87 seconds process time
c 
c --- [ options ] ------------------------------------------------------------
c 
c   --compact=false                (different from default 'true')
c   --decompose=false              (different from default 'true')
c   --deduplicate=false            (different from default 'true')
c   --elim=false                   (different from default 'true')
c   --probe=false                  (different from default 'true')
c   --reduce=false                 (different from default 'true')
c   --subsume=false                (different from default 'true')
c   --ternary=false                (different from default 'true')
c   --transred=false               (different from default 'true')
c   --vivify=false                 (different from default 'true')
c 
c --- [ solving ] ------------------------------------------------------------
c 
c time measured in process time since initialization
c 
c  seconds   reductions  redundant   irredundant
c          MB    restarts       trail        variables
c           level   conflicts       glue           remaining
c 
c *  0.87 774  0 0   0    0    0  0% 0 4449498 947467 47%
c l  0.99 781  0 0   0    0    0  0% 0 4449498 947467 47%
c 1  0.99 781  0 0   0    0    0  0% 0 4449498 947467 47%
c 
c --- [ result ] -------------------------------------------------------------
c 
s SATISFIABLE
v 1 2 3 4 5 6 7 8 9 10 11 12 13 14 15 16 17 18 19 20 21 22 23 24 25 26 27 28
v 29 30 31 32 33 34 35 36 37 38 39 40 41 42 43 44 45 46 47 48 49 50 51 52 53
v 54 55 56 57 58 59 60 61 62 63 64 65 66 67 68 69 70 71 72 73 74 75 76 77 78
v 79 80 81 82 83 84 85 86 87 88 89 90 91 92 93 94 95 96 97 98 99 100 101 102
v 103 104 105 106 107 108 109 110 111 112 113 114 115 116 117 118 119 120 121
v 122 123 124 125 126 127 128 129 130 131 132 133 134 135 136 137 138 139 140
v 141 142 143 144 145 146 147 148 149 150 151 152 153 154 155 156 157 158 159
v 160 161 162 163 164 165 166 167 168 169 170 171 172 173 174 175 176 177 178
v 179 180 181 182 183 184 185 186 187 188 189 190 191 192 193 194 195 196 197
v 198 199 200 201 202 203 204 205 206 207 208 209 210 211 212 213 214 215 216
v 217 218 219 220 221 222 223 224 225 226 227 228 229 230 231 232 233 234 235
v 236 237 238 239 240 241 242 243 244 245 246 247 248 249 250 251 252 253 254
v 255 256 257 258 259 260 261 262 263 264 265 266 267 268 269 270 271 272 273
v 274 275 276 277 278 279 280 281 282 283 284 285 286 287 288 289 290 291 292
v 293 294 295 296 297 298 299 300 301 302 303 304 305 306 307 308 309 310 311
v 312 313 314 315 316 317 318 319 320 321 322 323 324 325 326 327 328 329 330
v 331 332 333 334 335 336 337 338 339 340 341 342 343 344 345 346 347 348 349
v 350 351 352 353 354 355 356 357 358 359 360 361 362 363 364 365 366 367 368
v 369 370 371 372 373 374 375 376 377 378 379 380 381 382 383 384 385 386 387
v 388 389 390 391 392 393 394 395 396 397 398 399 400 401 402 403 404 405 406
v 407 408 409 410 411 412 413 414 415 416 417 418 419 420 421 422 423 424 425
v 426 427 428 429 430 431 432 433 434 435 436 437 438 439 440 441 442 443 444
v 445 446 447 448 449 450 451 452 453 454 455 456 457 458 459 460 461 462 463
v 464 465 466 467 468 469 470 471 472 473 474 475 476 477 478 479 480 481 482
v 483 484 485 486 487 488 489 490 491 492 493 494 495 496 497 498 499 500 501
v 502 503 504 505 506 507 508 509 510 511 512 513 514 515 516 517 518 519 520
v 521 522 523 524 525 526 527 528 529 530 531 532 533 534 535 536 537 538 539
v 540 541 542 543 544 545 546 547 548 549 550 551 552 553 554 555 556 557 558
v 559 560 561 562 563 564 565 566 567 568 569 570 571 572 573 574 575 576 577
v 578 579 580 581 582 583 584 585 586 587 588 589 590 591 592 593 594 595 596
v 597 598 599 600 601 602 603 604 605 606 607 608 609 610 611 612 613 614 615
v 616 617 618 619 620 621 622 623 624 625 626 627 628 629 630 631 632 633 634
v 635 636 637 638 639 640 641 642 643 644 645 646 647 648 649 650 651 652 653
v 654 655 656 657 658 659 660 661 662 663 664 665 666 667 668 669 670 671 672
v 673 674 675 676 677 678 679 680 681 682 683 684 685 686 687 688 689 690 691
v 692 693 694 695 696 697 698 699 700 701 702 703 704 705 706 707 708 709 710
v 711 712 713 714 715 716 717 718 719 720 721 722 723 724 725 726 727 728 729
v 730 731 732 733 734 735 736 737 738 739 740 741 742 743 744 745 746 747 748
v 749 750 751 752 753 754 755 756 757 758 759 760 761 762 763 764 765 766 767
v 768 769 770 771 772 773 774 775 776 777 778 779 780 781 782 783 784 785 786
v 787 788 789 790 791 792 793 794 795 796 797 798 799 800 801 802 803 804 805
v 806 807 808 809 810 811 812 813 814 815 816 817 818 819 820 821 822 823 824
v 825 826 827 828 829 830 831 832 833 834 835 836 837 838 839 840 841 842 843
v 844 845 846 847 848 849 850 851 852 853 854 855 856 857 858 859 860 861 862
v 863 864 865 866 867 868 869 870 871 872 873 874 875 876 877 878 879 880 881
v 882 883 884 885 886 887 888 889 890 891 892 893 894 895 896 897 898 899 900
v 901 902 903 904 905 906 907 908 909 910 911 912 913 914 915 916 917 918 919
... skipped 229638 lines ...
v -2025574 -2025575 -2025576 -2025577 -2025578 -2025579 -2025580 -2025581
v -2025582 -2025583 -2025584 -2025585 -2025586 -2025587 -2025588 -2025589
v -2025590 -2025591 -2025592 -2025593 -2025594 -2025595 -2025596 -2025597
v -2025598 -2025599 -2025600 -2025601 -2025602 -2025603 -2025604 -2025605
v -2025606 -2025607 -2025608 -2025609 -2025610 -2025611 -2025612 -2025613
v -2025614 -2025615 -2025616 -2025617 -2025618 -2025619 -2025620 -2025621
v -2025622 -2025623 -2025624 -2025625 -2025626 -2025627 -2025628 -2025629
v -2025630 -2025631 -2025632 -2025633 -2025634 -2025635 -2025636 -2025637
v -2025638 -2025639 -2025640 -2025641 -2025642 -2025643 -2025644 -2025645
v -2025646 -2025647 -2025648 -2025649 -2025650 -2025651 -2025652 -2025653
v -2025654 -2025655 -2025656 -2025657 -2025658 -2025659 -2025660 -2025661
v -2025662 -2025663 -2025664 -2025665 -2025666 -2025667 -2025668 -2025669
v -2025670 -2025671 -2025672 -2025673 -2025674 -2025675 -2025676 -2025677
v -2025678 -2025679 -2025680 -2025681 -2025682 -2025683 -2025684 -2025685
v -2025686 -2025687 -2025688 -2025689 -2025690 -2025691 -2025692 -2025693
v -2025694 -2025695 -2025696 -2025697 -2025698 -2025699 -2025700 -2025701
v -2025702 -2025703 -2025704 -2025705 -2025706 -2025707 -2025708 -2025709
v -2025710 -2025711 -2025712 -2025713 -2025714 -2025715 -2025716 -2025717
v -2025718 -2025719 -2025720 -2025721 -2025722 -2025723 -2025724 -2025725
v -2025726 -2025727 -2025728 -2025729 -2025730 -2025731 -2025732 -2025733
v -2025734 -2025735 -2025736 -2025737 -2025738 -2025739 -2025740 -2025741
v -2025742 -2025743 -2025744 -2025745 -2025746 -2025747 -2025748 -2025749
v -2025750 -2025751 -2025752 -2025753 -2025754 -2025755 -2025756 -2025757
v -2025758 -2025759 -2025760 -2025761 -2025762 -2025763 -2025764 -2025765
v -2025766 -2025767 -2025768 -2025769 -2025770 -2025771 -2025772 -2025773
v -2025774 -2025775 -2025776 -2025777 -2025778 -2025779 -2025780 -2025781
v -2025782 -2025783 -2025784 -2025785 -2025786 -2025787 -2025788 -2025789
v -2025790 -2025791 -2025792 -2025793 -2025794 -2025795 -2025796 -2025797
v -2025798 -2025799 -2025800 -2025801 -2025802 -2025803 -2025804 -2025805
v -2025806 -2025807 -2025808 -2025809 -2025810 -2025811 -2025812 -2025813
v -2025814 -2025815 -2025816 -2025817 -2025818 -2025819 2025820 -2025821
v 2025822 -2025823 -2025824 -2025825 -2025826 -2025827 -2025828 -2025829
v -2025830 -2025831 -2025832 -2025833 -2025834 -2025835 -2025836 -2025837
v -2025838 -2025839 -2025840 -2025841 -2025842 -2025843 -2025844 -2025845
v -2025846 -2025847 -2025848 -2025849 -2025850 -2025851 -2025852 -2025853
v -2025854 -2025855 -2025856 -2025857 -2025858 -2025859 -2025860 -2025861
v -2025862 -2025863 -2025864 -2025865 -2025866 -2025867 -2025868 -2025869
v -2025870 -2025871 -2025872 -2025873 -2025874 -2025875 -2025876 -2025877
v -2025878 -2025879 -2025880 -2025881 -2025882 -2025883 -2025884 -2025885
v -2025886 -2025887 -2025888 -2025889 -2025890 -2025891 -2025892 -2025893
v -2025894 -2025895 -2025896 -2025897 -2025898 -2025899 -2025900 -2025901
v -2025902 -2025903 -2025904 -2025905 -2025906 -2025907 -2025908 -2025909
v -2025910 -2025911 -2025912 -2025913 -2025914 -2025915 -2025916 -2025917
v -2025918 -2025919 -2025920 -2025921 -2025922 -2025923 -2025924 -2025925
v -2025926 -2025927 -2025928 -2025929 -2025930 -2025931 -2025932 -2025933
v -2025934 -2025935 -2025936 -2025937 -2025938 -2025939 -2025940 -2025941
v -2025942 -2025943 -2025944 -2025945 -2025946 -2025947 -2025948 -2025949
v -2025950 -2025951 -2025952 -2025953 -2025954 -2025955 -2025956 -2025957
v -2025958 -2025959 -2025960 -2025961 -2025962 -2025963 -2025964 -2025965
v -2025966 -2025967 -2025968 -2025969 -2025970 -2025971 -2025972 -2025973
v -2025974 -2025975 -2025976 -2025977 -2025978 -2025979 -2025980 -2025981
v -2025982 -2025983 -2025984 -2025985 -2025986 -2025987 -2025988 -2025989
v -2025990 -2025991 -2025992 -2025993 -2025994 -2025995 -2025996 -2025997
v -2025998 -2025999 -2026000 -2026001 -2026002 -2026003 -2026004 -2026005
v -2026006 -2026007 -2026008 -2026009 -2026010 -2026011 -2026012 -2026013
v -2026014 -2026015 -2026016 -2026017 -2026018 -2026019 -2026020 -2026021
v -2026022 -2026023 -2026024 -2026025 -2026026 -2026027 -2026028 -2026029
v -2026030 -2026031 -2026032 -2026033 -2026034 -2026035 -2026036 -2026037
v -2026038 -2026039 -2026040 -2026041 -2026042 -2026043 -2026044 -2026045
v -2026046 -2026047 -2026048 -2026049 -2026050 -2026051 -2026052 -2026053
v -2026054 -2026055 -2026056 -2026057 -2026058 -2026059 -2026060 -2026061
v -2026062 -2026063 -2026064 -2026065 -2026066 -2026067 -2026068 -2026069
v -2026070 -2026071 -2026072 -2026073 -2026074 -2026075 -2026076 -2026077
v -2026078 -2026079 -2026080 2026081 -2026082 -2026083 2026084 -2026085 0
c 
c --- [ run-time profiling ] -------------------------------------------------
c 
c process time taken by individual solving procedures
c (percentage relative to process time for solving)
c 
c         0.87  707.09% parse
c         0.12   99.90% search
c         0.12   99.89% lucky
c         0.00    0.00% simplify
c   =================================
c         0.12   11.35% solve
c 
c last line shows process time for solving
c (percentage relative to total process time)
c 
c --- [ statistics ] ---------------------------------------------------------
c 
c fixed:                   1077982        53.21 %  of all variables
c lucky:                         1       100.00 %  of tried
c minimized:                     0         0.00 %  learned literals
c shrunken:                      0         0.00 %  learned literals
c minishrunken:                  0         0.00 %  learned literals
c propagations:            1077982         8.80 M  per second
c 
c seconds are measured in process time for solving
c 
c --- [ resources ] ----------------------------------------------------------
c 
c total process time since initialization:         1.08    seconds
c total real time since initialization:            1.10    seconds
c maximum resident set size of process:          779.27    MB
c 
c --- [ shutting down ] ------------------------------------------------------
c 
c exit 10
